001 002 001 001 001 001 001 000 000 001 002 001 001 002 001 002 002 003 003 003 003 003 003 002 004 004 004 006 007 010 012
002 001 001 001 001 000 000 000 000 001 002 001 001 002 002 002 003 003 003 002 002 002 002 002 003 012 015 008 010 010 013
004 002 001 001 000 000 000 000 000 000 001 002 001 001 002 004 004 003 003 002 001 002 002 002 003 010 017 010 007 010 012
008 003 002 000 000 000 000 000 001 000 001 002 002 002 003 003 004 003 003 003 002 003 002 002 004 006 025 011 012 012 009
004 004 001 001 002 001 001 001 001 001 001 001 001 002 003 004 004 003 003 002 002 001 001 002 005 016 027 015 005 006 005
001 000 001 002 003 002 001 002 002 001 001 001 002 003 004 003 003 002 002 001 002 001 001 002 010 020 018 010 005 005 006
001 000 001 003 004 002 002 001 001 001 003 001 002 002 001 003 003 003 001 001 001 000 001 001 007 018 021 017 007 005 003
001 000 001 002 002 001 001 001 001 001 001 001 002 003 002 003 003 001 001 001 001 000 000 001 003 011 013 015 009 006 004
000 000 000 000 001 001 001 000 001 001 001 000 001 002 003 003 002 002 001 001 001 001 001 001 002 008 017 015 010 007 006
001 000 001 001 001 000 000 001 001 000 001 001 002 001 001 003 001 001 000 000 000 001 001 001 001 004 009 012 009 004 005
002 001 001 001 003 001 000 001 001 001 002 002 004 002 004 004 001 001 000 000 000 001 001 001 002 003 005 007 004 003 004
002 002 002 002 001 002 000 000 000 001 002 003 006 005 004 004 002 002 000 002 000 001 002 002 002 002 001 003 003 005 006
001 002 002 002 001 001 000 001 002 002 002 004 006 003 002 003 003 002 001 003 002 001 004 001 003 003 001 002 001 006 011
000 000 000 001 001 001 002 002 005 003 001 004 008 005 000 000 001 002 002 002 003 001 002 001 005 003 002 003 002 006 016
000 000 000 002 002 002 006 004 003 003 002 005 003 001 001 000 000 002 001 001 002 000 001 001 004 003 001 003 003 003 014
000 000 000 003 006 008 007 002 003 002 001 005 002 001 001 000 000 001 001 002 001 000 001 001 004 002 001 001 002 002 012
000 000 000 003 010 010 005 003 003 002 002 001 001 001 001 000 000 001 001 002 001 001 001 002 002 002 001 000 001 000 002
000 000 000 000 003 010 009 005 004 003 003 004 001 000 000 001 000 000 001 003 002 000 001 002 001 001 000 000 000 000 001
000 000 000 000 002 007 008 007 005 004 004 005 002 000 000 001 001 001 002 004 003 000 002 004 003 001 000 000 000 000 001
000 000 000 000 002 002 004 008 007 007 004 005 002 001 000 000 001 002 004 003 002 000 002 004 003 001 000 000 000 000 001
000 000 000 000 001 002 002 004 004 005 002 002 001 000 000 000 001 002 003 002 002 000 003 004 008 005 001 -99 -99 -99 -99
000 000 000 000 000 001 002 001 001 002 002 001 000 000 001 000 000 002 002 001 001 000 002 004 008 006 003 -99 -99 -99 -99
000 000 000 000 001 001 001 001 001 001 001 000 000 000 000 000 000 000 001 001 000 000 001 004 008 009 010 -99 -99 -99 -99
000 001 001 001 002 001 001 002 001 000 000 000 000 000 000 000 000 000 000 000 000 000 001 003 007 012 013 -99 -99 -99 -99
000 000 001 001 002 001 002 003 001 000 000 000 000 000 000 000 000 000 000 000 000 000 001 002 006 013 013 -99 -99 004 001
001 000 000 002 001 001 001 001 000 000 001 000 000 000 000 000 000 000 000 000 000 000 000 -99 -99 -99 013 011 017 009 003
000 000 000 001 002 001 000 000 000 000 001 000 001 001 000 000 000 000 000 000 000 000 000 -99 -99 -99 013 010 020 018 013
000 000 000 001 001 000 000 000 000 000 001 002 003 001 000 000 001 001 000 000 000 000 000 -99 -99 009 012 013 030 022 020
000 000 000 000 000 000 000 001 000 001 001 002 004 003 002 001 000 000 000 000 000 000 -99 -99 000 006 012 011 026 026 030
000 000 000 000 000 000 001 005 003 001 001 002 006 004 002 000 000 000 000 000 000 000 -99 -99 000 006 010 011 013 024 030
000 000 000 000 000 000 005 004 004 003 003 003 004 004 002 001 000 000 000 000 000 000 -99 000 001 007 010 011 009 021 031
000 000 000 000 001 002 003 003 003 005 004 003 004 002 000 000 000 000 000 000 000 000 000 000 001 009 008 009 006 006 009
000 000 001 001 002 003 005 002 002 003 005 003 003 003 001 000 000 000 000 000 -99 000 000 000 000 006 008 005 006 005 007
000 000 001 002 004 003 004 001 002 003 004 003 003 002 001 000 000 000 000 000 000 000 000 000 000 002 003 005 006 005 006
000 000 001 001 000 001 001 001 001 001 003 003 004 002 001 000 000 000 000 000 000 000 000 000 000 004 009 010 013 006 006
000 000 000 000 000 000 000 001 001 001 001 002 003 001 000 000 000 000 000 000 000 000 000 000 001 008 023 020 014 011 008
000 000 000 000 000 000 000 001 001 001 000 000 001 001 000 000 000 000 000 000 000 000 000 001 001 006 025 017 017 008 007
000 000 000 000 000 000 000 000 000 001 001 000 000 000 001 001 001 001 001 000 000 000 000 001 002 016 020 019 021 021 009
000 000 000 000 000 000 000 000 000 000 000 000 000 000 001 001 003 001 001 000 000 000 000 001 002 015 030 034 023 016 013
000 000 000 000 000 000 000 000 000 000 000 000 000 000 000 000 002 001 000 000 001 001 000 000 002 010 066 035 015 011 018
000 000 000 000 000 000 000 000 000 000 000 000 000 000 000 000 000 000 000 000 001 002 001 001 000 006 037 029 009 008 008
000 000 000 000 000 000 000 000 000 000 000 000 000 000 000 000 000 000 000 001 001 001 001 001 000 013 006 007 005 003 005
000 000 000 000 000 000 000 000 000 000 000 000 000 000 000 000 000 000 000 000 000 001 001 000 001 004 004 004 003 004 003
000 000 000 000 001 001 000 001 000 000 000 000 000 000 000 000 000 000 000 000 000 000 001 001 002 002 001 001 002 003 004
000 000 000 001 001 001 001 001 000 001 001 001 000 000 000 000 000 000 000 000 000 000 001 001 002 005 003 001 002 001 006
000 000 000 000 000 000 001 001 000 001 001 001 001 000 000 000 000 000 000 000 000 000 000 002 004 013 003 000 001 003 005
000 000 000 000 000 000 000 000 000 001 002 002 001 000 000 000 000 000 000 000 000 000 001 005 008 015 001 000 000 001 004
000 000 -99 -99 -99 000 000 000 000 001 004 002 000 000 001 000 001 000 000 000 000 000 001 002 005 002 000 000 000 001 001
000 -99 -99 -99 -99 -99 000 000 000 000 002 001 000 001 001 001 001 000 000 000 001 003 001 000 003 000 000 000 000 000 000
-99 -99 -99 -99 -99 -99 000 000 000 000 001 001 000 001 003 003 002 001 000 000 001 005 000 000 001 001 000 000 000 000 000
-99 -99 -99 -99 -99 -99 000 001 002 002 001 001 000 001 002 006 004 002 001 000 006 003 001 002 003 005 000 000 000 000 000
-99 -99 -99 -99 -99 -99 000 001 003 002 004 001 000 000 001 004 004 002 002 000 002 001 001 004 017 001 000 000 000 001 001
-99 -99 -99 -99 -99 000 000 001 001 002 002 001 000 000 001 002 001 001 000 000 001 000 002 004 005 000 000 000 000 001 -99
-99 -99 -99 -99 -99 000 000 000 000 002 001 000 001 001 000 000 000 000 000 001 000 000 001 003 000 000 000 000 001 000 -99
-99 -99 -99 -99 -99 000 000 000 001 001 001 001 001 000 000 000 000 000 000 000 000 000 000 001 000 000 000 001 000 -99 -99
